
Gurobi 7.0.2 (linux64, Matlab) logging started Sun Sep  2 08:55:45 2018


Gurobi 7.0.2 (linux64) logging started Sun Sep  2 08:55:45 2018

Optimize a model with 30597 rows, 30199 columns and 2100495 nonzeros
Coefficient statistics:
  Matrix range     [1e+00, 2e+01]
  Objective range  [1e+00, 1e+00]
  Bounds range     [1e+00, 2e+01]
  RHS range        [1e+00, 2e+01]
Iteration    Objective       Primal Inf.    Dual Inf.      Time
       0   -1.5243333e+03   0.000000e+00   0.000000e+00      0s

Solved in 0 iterations and 0.06 seconds
Optimal objective -1.524333333e+03
